1 5 30
1209
  1.1  0.50  48.9 2679.2   0.0
 0.33 1428.9 110.3
 0.25 1078.6  83.3
 0.30 1299.0 100.3
 0.39 1688.7 130.4
 0.16 697.1  53.8
 1470
  506
  999
  576
 1445
 1217
 1228
 1369
 1345
 1059
 1475
 1407
 1235
 1043
 1439
 1259
  883
  510
 1184
  712
  862
 1320
  637
  956
 1176
 1459
 1440
 1037
  680
 1109
